Reproduction of the Original Problem/Instances/S1-5/S1-15-5-2-l.txt
     100       5    0.15
       3       1       2       1       1       9      15       7      14       9       3
       1       2       1       2       1       4      12      15      12      11       2
       2       2       2       1       3       7       7      16       7      12       3
       1       1       2       3       3      15      15      16      12      11       2
       3       1       3       1       1       4      13      11       4       5       3
       1       3       1       1       3       1       7       0       2      10       3
       3       2       3       2       3       5      16       6      15      10       3
       3       2       3       1       3       7       3       1       4      15       2
       2       3       3       3       1       9       0       1      15       8       3
       3       3       2       1       2       7       8       2       8      14       3
       3       2       1       1       1      11       3       1       4       1       3
       2       3       3       3       2      16       1       6       5       0       2
       2       1       2       2       3      10       4      12       1       5       3
       2       2       2       3       3       1      14      14       1       0       3
       1       3       3       1       2      13       4       5      16       6       3
       2       3       3       2       2      13       4      10       1      16       2
       1       2       3       1       1       3       8      14       6       8       3
       3       2       3       2       1       8      16      11       9       1       3
       1       1       3       2       2      15      11       5      11      15       3
       3       2       2       2       2       9       7       7       1       1       3
       1       1       3       1       2      11      16       9       7      12       3
       3       2       1       2       2      14       9      12       8       2       2
       2       3       3       1       1       0      15       5      10       9       2
       2       3       1       3       1      12       3      10       6       2       3
       3       1       2       3       1      12      15      15       7       7       3
       2       2       3       1       3       0      15      13       7       9       3
       2       3       3       2       3      16       2       9       5       8       2
       2       3       2       3       1       6      15      11      13      16       2
       3       2       3       3       2      11      16      15       2       5       2
       3       2       1       3       1       1       1       9      10      12       3
       1       1       3       1       3      14       4      12       7      16       2
       3       2       1       3       3      11       4      10       9       8       2
       3       1       2       2       1       1       4       2       4      15       2
       3       1       1       2       3      13      16       1      16      13       3
       2       1       2       3       2       0       8       6       3       9       2
       1       1       2       1       2      10       5      15       0      12       3
       3       1       3       1       3       2       5       8       8      11       3
       2       3       2       2       2       5      14       5      10       1       2
       1       2       3       2       2      16      12       7       0      13       2
       3       1       2       1       3      16       0       8       0      10       2
       2       3       2       2       3      11      15       4       3       3       2
       2       2       1       1       1      15      11      12       5       3       2
       3       2       2       1       2      16      16      16       3       2       3
       2       1       2       3       3       9       6       4       0       9       3
       1       1       1       1       2       4       3       0       2       8       3
       3       2       3       2       2       6       6       4      16      16       2
       2       2       1       1       3       1      16      13       2      13       3
       1       2       3       3       1       8      15       2      15      15       2
       3       2       3       2       3       2      11       8      16      12       3
       3       2       1       2       1      15       6       7       8       7       2
       2       3       1       2       3       9       1      10       8      10       3
       1       3       1       1       2      11       3      11      10       1       3
       2       2       2       3       3      14      12       0       3      11       2
       2       3       2       1       1       3       9       2       7       6       2
       1       3       3       3       1      10      15       6      12      10       3
       3       2       3       1       1       6      15       1       1       2       2
       1       2       1       1       3       4      12       8       8      15       3
       1       3       2       2       2       8      11       7       9       9       3
       2       2       2       1       1       0       9      10       4       4       2
       3       1       2       2       2       4      10       1      14       7       3
       2       2       3       3       3       7       2       5      11       6       2
       3       3       1       3       1       7       7       5      12      12       2
       1       3       2       2       2      12      16      16      15       7       2
       2       1       3       3       2       4       6      16       7       9       3
       2       1       2       3       1      16      15      12      13       9       2
       2       2       2       3       2      10      14      12      15       7       3
       2       3       2       3       1       0      16      12       3      10       3
       2       2       1       2       3      12       4       8      14       5       2
       1       2       3       2       2      16      13      13       3       4       3
       3       1       2       1       2       6       9       4      14       2       2
       3       2       3       2       1      13       9       8       6       6       2
       3       1       3       1       1       4       0      11       0       8       3
       2       3       3       1       1       6      10       8       0      11       3
       3       1       1       2       1       4       1      15      16       2       3
       3       3       3       1       1       3      10       8      10       4       3
       2       2       2       2       1       8       6       4      13       5       2
       3       1       3       1       1       8       0       1      12      14       2
       1       1       2       3       3       1       5       9      10      10       3
       1       3       3       2       2       6       6       4       4      11       3
       2       2       2       1       2       7       6       9       2       6       2
       3       1       3       3       1       2       1       8      13      14       3
       3       1       1       2       3      13      15       4       0      15       3
       1       3       1       1       3       0      10       9       1       8       2
       1       1       2       2       2       0      11       9      10       0       3
       2       3       3       1       3      14       1       3       1       3       3
       3       2       1       2       1      11       4      13       0      14       3
       2       2       2       1       1       9      13       1       0       0       2
       3       2       2       1       3      10       6      14      13       1       2
       1       3       1       1       2      11       9      15      15      16       3
       2       3       1       3       2      16       0       8       2      16       3
       3       3       3       1       3      12       8      11      14      10       2
       1       3       3       3       1       2       9       5       0       9       2
       3       2       1       1       1       4      16       7       5      15       2
       1       3       1       2       2      12      10       8       6      16       3
       2       3       3       1       2       5       0      14       5      12       2
       2       1       2       1       3      11       0       8       7       8       2
       2       2       1       1       2       7       7      16      12       0       3
       1       2       3       3       1      14      14       9      14      12       2
       1       2       3       3       2       5      10       4       5      15       3
       1       1       1       3       2       1       8       0       5       3       3
      80      88      90      85      64
     202     198     200     158     135
     331     458     296     351     225