Reproduction of the Original Problem/results-log/S1-5/S1-15-5-2-l.log
CPXPARAM_Read_DataCheck                          1
Found incumbent of value 0.000000 after 0.00 sec. (0.02 ticks)
Tried aggregator 1 time.
MIP Presolve modified 1 coefficients.
Reduced MIP has 116 rows, 505 columns, and 2515 nonzeros.
Reduced MIP has 505 binaries, 0 generals, 0 SOSs, and 0 indicators.
Presolve time = 0.00 sec. (1.04 ticks)
Probing time = 0.00 sec. (0.74 ticks)
Tried aggregator 1 time.
Reduced MIP has 116 rows, 505 columns, and 2515 nonzeros.
Reduced MIP has 505 binaries, 0 generals, 0 SOSs, and 0 indicators.
Presolve time = 0.00 sec. (1.23 ticks)
Probing time = 0.00 sec. (0.74 ticks)
Clique table members: 500.
MIP emphasis: balance optimality and feasibility.
MIP search method: dynamic search.
Parallel mode: deterministic, using up to 4 threads.
Root relaxation solution time = 0.00 sec. (1.03 ticks)

        Nodes                                         Cuts/
   Node  Left     Objective  IInf  Best Integer    Best Bound    ItCnt     Gap

*     0+    0                            0.0000     3147.0000              --- 
      0     0     1598.2700     5        0.0000     1598.2700      162     --- 
*     0+    0                          412.0000     1598.2700           287.93%
      0     0     1062.7237   183      412.0000     Cuts: 133      400  157.94%
*     0+    0                          906.0000     1062.7237            17.30%
      0     0      932.8318   251      906.0000     Cuts: 135      622    2.96%
*     0     0      integral     0      918.0000      Cuts: 95      715    0.00%
      0     0        cutoff            918.0000      918.0000      715    0.00%
Elapsed time = 0.09 sec. (57.97 ticks, tree = 0.01 MB, solutions = 4)

GUB cover cuts applied:  2
Clique cuts applied:  298
Cover cuts applied:  10
Mixed integer rounding cuts applied:  11
Zero-half cuts applied:  3

Root node processing (before b&c):
  Real time             =    0.09 sec. (58.02 ticks)
Parallel b&c, 4 threads:
  Real time             =    0.00 sec. (0.00 ticks)
  Sync time (average)   =    0.00 sec.
  Wait time (average)   =    0.00 sec.
                          ------------
Total (root+branch&cut) =    0.09 sec. (58.02 ticks)
